c *********************************
c * Circuit generated by BenCGen
c *
c * Parity_221
c *
c * Ports with 1 gate(s): 1
c * Ports with 2 gate(s): 221
c * Total gates: 222
c *********************************
p cnf 443 885
1 224 0
-1 -224 0
1 -223 0
224 -223 0
-1 -224 223 0
1 2 -225 0
-1 2 225 0
1 -2 225 0
-1 -2 -225 0
3 4 -226 0
-3 4 226 0
3 -4 226 0
-3 -4 -226 0
5 6 -227 0
-5 6 227 0
5 -6 227 0
-5 -6 -227 0
7 8 -228 0
-7 8 228 0
7 -8 228 0
-7 -8 -228 0
9 10 -229 0
-9 10 229 0
9 -10 229 0
-9 -10 -229 0
11 12 -230 0
-11 12 230 0
11 -12 230 0
-11 -12 -230 0
13 14 -231 0
-13 14 231 0
13 -14 231 0
-13 -14 -231 0
15 16 -232 0
-15 16 232 0
15 -16 232 0
-15 -16 -232 0
17 18 -233 0
-17 18 233 0
17 -18 233 0
-17 -18 -233 0
19 20 -234 0
-19 20 234 0
19 -20 234 0
-19 -20 -234 0
21 22 -235 0
-21 22 235 0
21 -22 235 0
-21 -22 -235 0
23 24 -236 0
-23 24 236 0
23 -24 236 0
-23 -24 -236 0
25 26 -237 0
-25 26 237 0
25 -26 237 0
-25 -26 -237 0
27 28 -238 0
-27 28 238 0
27 -28 238 0
-27 -28 -238 0
29 30 -239 0
-29 30 239 0
29 -30 239 0
-29 -30 -239 0
31 32 -240 0
-31 32 240 0
31 -32 240 0
-31 -32 -240 0
33 34 -241 0
-33 34 241 0
33 -34 241 0
-33 -34 -241 0
35 36 -242 0
-35 36 242 0
35 -36 242 0
-35 -36 -242 0
37 38 -243 0
-37 38 243 0
37 -38 243 0
-37 -38 -243 0
39 40 -244 0
-39 40 244 0
39 -40 244 0
-39 -40 -244 0
41 42 -245 0
-41 42 245 0
41 -42 245 0
-41 -42 -245 0
43 44 -246 0
-43 44 246 0
43 -44 246 0
-43 -44 -246 0
45 46 -247 0
-45 46 247 0
45 -46 247 0
-45 -46 -247 0
47 48 -248 0
-47 48 248 0
47 -48 248 0
-47 -48 -248 0
49 50 -249 0
-49 50 249 0
49 -50 249 0
-49 -50 -249 0
51 52 -250 0
-51 52 250 0
51 -52 250 0
-51 -52 -250 0
53 54 -251 0
-53 54 251 0
53 -54 251 0
-53 -54 -251 0
55 56 -252 0
-55 56 252 0
55 -56 252 0
-55 -56 -252 0
57 58 -253 0
-57 58 253 0
57 -58 253 0
-57 -58 -253 0
59 60 -254 0
-59 60 254 0
59 -60 254 0
-59 -60 -254 0
61 62 -255 0
-61 62 255 0
61 -62 255 0
-61 -62 -255 0
63 64 -256 0
-63 64 256 0
63 -64 256 0
-63 -64 -256 0
65 66 -257 0
-65 66 257 0
65 -66 257 0
-65 -66 -257 0
67 68 -258 0
-67 68 258 0
67 -68 258 0
-67 -68 -258 0
69 70 -259 0
-69 70 259 0
69 -70 259 0
-69 -70 -259 0
71 72 -260 0
-71 72 260 0
71 -72 260 0
-71 -72 -260 0
73 74 -261 0
-73 74 261 0
73 -74 261 0
-73 -74 -261 0
75 76 -262 0
-75 76 262 0
75 -76 262 0
-75 -76 -262 0
77 78 -263 0
-77 78 263 0
77 -78 263 0
-77 -78 -263 0
79 80 -264 0
-79 80 264 0
79 -80 264 0
-79 -80 -264 0
81 82 -265 0
-81 82 265 0
81 -82 265 0
-81 -82 -265 0
83 84 -266 0
-83 84 266 0
83 -84 266 0
-83 -84 -266 0
85 86 -267 0
-85 86 267 0
85 -86 267 0
-85 -86 -267 0
87 88 -268 0
-87 88 268 0
87 -88 268 0
-87 -88 -268 0
89 90 -269 0
-89 90 269 0
89 -90 269 0
-89 -90 -269 0
91 92 -270 0
-91 92 270 0
91 -92 270 0
-91 -92 -270 0
93 94 -271 0
-93 94 271 0
93 -94 271 0
-93 -94 -271 0
95 96 -272 0
-95 96 272 0
95 -96 272 0
-95 -96 -272 0
97 98 -273 0
-97 98 273 0
97 -98 273 0
-97 -98 -273 0
99 100 -274 0
-99 100 274 0
99 -100 274 0
-99 -100 -274 0
101 102 -275 0
-101 102 275 0
101 -102 275 0
-101 -102 -275 0
103 104 -276 0
-103 104 276 0
103 -104 276 0
-103 -104 -276 0
105 106 -277 0
-105 106 277 0
105 -106 277 0
-105 -106 -277 0
107 108 -278 0
-107 108 278 0
107 -108 278 0
-107 -108 -278 0
109 110 -279 0
-109 110 279 0
109 -110 279 0
-109 -110 -279 0
111 112 -280 0
-111 112 280 0
111 -112 280 0
-111 -112 -280 0
113 114 -281 0
-113 114 281 0
113 -114 281 0
-113 -114 -281 0
115 116 -282 0
-115 116 282 0
115 -116 282 0
-115 -116 -282 0
117 118 -283 0
-117 118 283 0
117 -118 283 0
-117 -118 -283 0
119 120 -284 0
-119 120 284 0
119 -120 284 0
-119 -120 -284 0
121 122 -285 0
-121 122 285 0
121 -122 285 0
-121 -122 -285 0
123 124 -286 0
-123 124 286 0
123 -124 286 0
-123 -124 -286 0
125 126 -287 0
-125 126 287 0
125 -126 287 0
-125 -126 -287 0
127 128 -288 0
-127 128 288 0
127 -128 288 0
-127 -128 -288 0
129 130 -289 0
-129 130 289 0
129 -130 289 0
-129 -130 -289 0
131 132 -290 0
-131 132 290 0
131 -132 290 0
-131 -132 -290 0
133 134 -291 0
-133 134 291 0
133 -134 291 0
-133 -134 -291 0
135 136 -292 0
-135 136 292 0
135 -136 292 0
-135 -136 -292 0
137 138 -293 0
-137 138 293 0
137 -138 293 0
-137 -138 -293 0
139 140 -294 0
-139 140 294 0
139 -140 294 0
-139 -140 -294 0
141 142 -295 0
-141 142 295 0
141 -142 295 0
-141 -142 -295 0
143 144 -296 0
-143 144 296 0
143 -144 296 0
-143 -144 -296 0
145 146 -297 0
-145 146 297 0
145 -146 297 0
-145 -146 -297 0
147 148 -298 0
-147 148 298 0
147 -148 298 0
-147 -148 -298 0
149 150 -299 0
-149 150 299 0
149 -150 299 0
-149 -150 -299 0
151 152 -300 0
-151 152 300 0
151 -152 300 0
-151 -152 -300 0
153 154 -301 0
-153 154 301 0
153 -154 301 0
-153 -154 -301 0
155 156 -302 0
-155 156 302 0
155 -156 302 0
-155 -156 -302 0
157 158 -303 0
-157 158 303 0
157 -158 303 0
-157 -158 -303 0
159 160 -304 0
-159 160 304 0
159 -160 304 0
-159 -160 -304 0
161 162 -305 0
-161 162 305 0
161 -162 305 0
-161 -162 -305 0
163 164 -306 0
-163 164 306 0
163 -164 306 0
-163 -164 -306 0
165 166 -307 0
-165 166 307 0
165 -166 307 0
-165 -166 -307 0
167 168 -308 0
-167 168 308 0
167 -168 308 0
-167 -168 -308 0
169 170 -309 0
-169 170 309 0
169 -170 309 0
-169 -170 -309 0
171 172 -310 0
-171 172 310 0
171 -172 310 0
-171 -172 -310 0
173 174 -311 0
-173 174 311 0
173 -174 311 0
-173 -174 -311 0
175 176 -312 0
-175 176 312 0
175 -176 312 0
-175 -176 -312 0
177 178 -313 0
-177 178 313 0
177 -178 313 0
-177 -178 -313 0
179 180 -314 0
-179 180 314 0
179 -180 314 0
-179 -180 -314 0
181 182 -315 0
-181 182 315 0
181 -182 315 0
-181 -182 -315 0
183 184 -316 0
-183 184 316 0
183 -184 316 0
-183 -184 -316 0
185 186 -317 0
-185 186 317 0
185 -186 317 0
-185 -186 -317 0
187 188 -318 0
-187 188 318 0
187 -188 318 0
-187 -188 -318 0
189 190 -319 0
-189 190 319 0
189 -190 319 0
-189 -190 -319 0
191 192 -320 0
-191 192 320 0
191 -192 320 0
-191 -192 -320 0
193 194 -321 0
-193 194 321 0
193 -194 321 0
-193 -194 -321 0
195 196 -322 0
-195 196 322 0
195 -196 322 0
-195 -196 -322 0
197 198 -323 0
-197 198 323 0
197 -198 323 0
-197 -198 -323 0
199 200 -324 0
-199 200 324 0
199 -200 324 0
-199 -200 -324 0
201 202 -325 0
-201 202 325 0
201 -202 325 0
-201 -202 -325 0
203 204 -326 0
-203 204 326 0
203 -204 326 0
-203 -204 -326 0
205 206 -327 0
-205 206 327 0
205 -206 327 0
-205 -206 -327 0
207 208 -328 0
-207 208 328 0
207 -208 328 0
-207 -208 -328 0
209 210 -329 0
-209 210 329 0
209 -210 329 0
-209 -210 -329 0
211 212 -330 0
-211 212 330 0
211 -212 330 0
-211 -212 -330 0
213 214 -331 0
-213 214 331 0
213 -214 331 0
-213 -214 -331 0
215 216 -332 0
-215 216 332 0
215 -216 332 0
-215 -216 -332 0
217 218 -333 0
-217 218 333 0
217 -218 333 0
-217 -218 -333 0
219 220 -334 0
-219 220 334 0
219 -220 334 0
-219 -220 -334 0
225 226 -335 0
-225 226 335 0
225 -226 335 0
-225 -226 -335 0
227 228 -336 0
-227 228 336 0
227 -228 336 0
-227 -228 -336 0
229 230 -337 0
-229 230 337 0
229 -230 337 0
-229 -230 -337 0
231 232 -338 0
-231 232 338 0
231 -232 338 0
-231 -232 -338 0
233 234 -339 0
-233 234 339 0
233 -234 339 0
-233 -234 -339 0
235 236 -340 0
-235 236 340 0
235 -236 340 0
-235 -236 -340 0
237 238 -341 0
-237 238 341 0
237 -238 341 0
-237 -238 -341 0
239 240 -342 0
-239 240 342 0
239 -240 342 0
-239 -240 -342 0
241 242 -343 0
-241 242 343 0
241 -242 343 0
-241 -242 -343 0
243 244 -344 0
-243 244 344 0
243 -244 344 0
-243 -244 -344 0
245 246 -345 0
-245 246 345 0
245 -246 345 0
-245 -246 -345 0
247 248 -346 0
-247 248 346 0
247 -248 346 0
-247 -248 -346 0
249 250 -347 0
-249 250 347 0
249 -250 347 0
-249 -250 -347 0
251 252 -348 0
-251 252 348 0
251 -252 348 0
-251 -252 -348 0
253 254 -349 0
-253 254 349 0
253 -254 349 0
-253 -254 -349 0
255 256 -350 0
-255 256 350 0
255 -256 350 0
-255 -256 -350 0
257 258 -351 0
-257 258 351 0
257 -258 351 0
-257 -258 -351 0
259 260 -352 0
-259 260 352 0
259 -260 352 0
-259 -260 -352 0
261 262 -353 0
-261 262 353 0
261 -262 353 0
-261 -262 -353 0
263 264 -354 0
-263 264 354 0
263 -264 354 0
-263 -264 -354 0
265 266 -355 0
-265 266 355 0
265 -266 355 0
-265 -266 -355 0
267 268 -356 0
-267 268 356 0
267 -268 356 0
-267 -268 -356 0
269 270 -357 0
-269 270 357 0
269 -270 357 0
-269 -270 -357 0
271 272 -358 0
-271 272 358 0
271 -272 358 0
-271 -272 -358 0
273 274 -359 0
-273 274 359 0
273 -274 359 0
-273 -274 -359 0
275 276 -360 0
-275 276 360 0
275 -276 360 0
-275 -276 -360 0
277 278 -361 0
-277 278 361 0
277 -278 361 0
-277 -278 -361 0
279 280 -362 0
-279 280 362 0
279 -280 362 0
-279 -280 -362 0
281 282 -363 0
-281 282 363 0
281 -282 363 0
-281 -282 -363 0
283 284 -364 0
-283 284 364 0
283 -284 364 0
-283 -284 -364 0
285 286 -365 0
-285 286 365 0
285 -286 365 0
-285 -286 -365 0
287 288 -366 0
-287 288 366 0
287 -288 366 0
-287 -288 -366 0
289 290 -367 0
-289 290 367 0
289 -290 367 0
-289 -290 -367 0
291 292 -368 0
-291 292 368 0
291 -292 368 0
-291 -292 -368 0
293 294 -369 0
-293 294 369 0
293 -294 369 0
-293 -294 -369 0
295 296 -370 0
-295 296 370 0
295 -296 370 0
-295 -296 -370 0
297 298 -371 0
-297 298 371 0
297 -298 371 0
-297 -298 -371 0
299 300 -372 0
-299 300 372 0
299 -300 372 0
-299 -300 -372 0
301 302 -373 0
-301 302 373 0
301 -302 373 0
-301 -302 -373 0
303 304 -374 0
-303 304 374 0
303 -304 374 0
-303 -304 -374 0
305 306 -375 0
-305 306 375 0
305 -306 375 0
-305 -306 -375 0
307 308 -376 0
-307 308 376 0
307 -308 376 0
-307 -308 -376 0
309 310 -377 0
-309 310 377 0
309 -310 377 0
-309 -310 -377 0
311 312 -378 0
-311 312 378 0
311 -312 378 0
-311 -312 -378 0
313 314 -379 0
-313 314 379 0
313 -314 379 0
-313 -314 -379 0
315 316 -380 0
-315 316 380 0
315 -316 380 0
-315 -316 -380 0
317 318 -381 0
-317 318 381 0
317 -318 381 0
-317 -318 -381 0
319 320 -382 0
-319 320 382 0
319 -320 382 0
-319 -320 -382 0
321 322 -383 0
-321 322 383 0
321 -322 383 0
-321 -322 -383 0
323 324 -384 0
-323 324 384 0
323 -324 384 0
-323 -324 -384 0
325 326 -385 0
-325 326 385 0
325 -326 385 0
-325 -326 -385 0
327 328 -386 0
-327 328 386 0
327 -328 386 0
-327 -328 -386 0
329 330 -387 0
-329 330 387 0
329 -330 387 0
-329 -330 -387 0
331 332 -388 0
-331 332 388 0
331 -332 388 0
-331 -332 -388 0
333 334 -389 0
-333 334 389 0
333 -334 389 0
-333 -334 -389 0
335 336 -390 0
-335 336 390 0
335 -336 390 0
-335 -336 -390 0
337 338 -391 0
-337 338 391 0
337 -338 391 0
-337 -338 -391 0
339 340 -392 0
-339 340 392 0
339 -340 392 0
-339 -340 -392 0
341 342 -393 0
-341 342 393 0
341 -342 393 0
-341 -342 -393 0
343 344 -394 0
-343 344 394 0
343 -344 394 0
-343 -344 -394 0
345 346 -395 0
-345 346 395 0
345 -346 395 0
-345 -346 -395 0
347 348 -396 0
-347 348 396 0
347 -348 396 0
-347 -348 -396 0
349 350 -397 0
-349 350 397 0
349 -350 397 0
-349 -350 -397 0
351 352 -398 0
-351 352 398 0
351 -352 398 0
-351 -352 -398 0
353 354 -399 0
-353 354 399 0
353 -354 399 0
-353 -354 -399 0
355 356 -400 0
-355 356 400 0
355 -356 400 0
-355 -356 -400 0
357 358 -401 0
-357 358 401 0
357 -358 401 0
-357 -358 -401 0
359 360 -402 0
-359 360 402 0
359 -360 402 0
-359 -360 -402 0
361 362 -403 0
-361 362 403 0
361 -362 403 0
-361 -362 -403 0
363 364 -404 0
-363 364 404 0
363 -364 404 0
-363 -364 -404 0
365 366 -405 0
-365 366 405 0
365 -366 405 0
-365 -366 -405 0
367 368 -406 0
-367 368 406 0
367 -368 406 0
-367 -368 -406 0
369 370 -407 0
-369 370 407 0
369 -370 407 0
-369 -370 -407 0
371 372 -408 0
-371 372 408 0
371 -372 408 0
-371 -372 -408 0
373 374 -409 0
-373 374 409 0
373 -374 409 0
-373 -374 -409 0
375 376 -410 0
-375 376 410 0
375 -376 410 0
-375 -376 -410 0
377 378 -411 0
-377 378 411 0
377 -378 411 0
-377 -378 -411 0
379 380 -412 0
-379 380 412 0
379 -380 412 0
-379 -380 -412 0
381 382 -413 0
-381 382 413 0
381 -382 413 0
-381 -382 -413 0
383 384 -414 0
-383 384 414 0
383 -384 414 0
-383 -384 -414 0
385 386 -415 0
-385 386 415 0
385 -386 415 0
-385 -386 -415 0
387 388 -416 0
-387 388 416 0
387 -388 416 0
-387 -388 -416 0
389 221 -417 0
-389 221 417 0
389 -221 417 0
-389 -221 -417 0
390 391 -418 0
-390 391 418 0
390 -391 418 0
-390 -391 -418 0
392 393 -419 0
-392 393 419 0
392 -393 419 0
-392 -393 -419 0
394 395 -420 0
-394 395 420 0
394 -395 420 0
-394 -395 -420 0
396 397 -421 0
-396 397 421 0
396 -397 421 0
-396 -397 -421 0
398 399 -422 0
-398 399 422 0
398 -399 422 0
-398 -399 -422 0
400 401 -423 0
-400 401 423 0
400 -401 423 0
-400 -401 -423 0
402 403 -424 0
-402 403 424 0
402 -403 424 0
-402 -403 -424 0
404 405 -425 0
-404 405 425 0
404 -405 425 0
-404 -405 -425 0
406 407 -426 0
-406 407 426 0
406 -407 426 0
-406 -407 -426 0
408 409 -427 0
-408 409 427 0
408 -409 427 0
-408 -409 -427 0
410 411 -428 0
-410 411 428 0
410 -411 428 0
-410 -411 -428 0
412 413 -429 0
-412 413 429 0
412 -413 429 0
-412 -413 -429 0
414 415 -430 0
-414 415 430 0
414 -415 430 0
-414 -415 -430 0
416 417 -431 0
-416 417 431 0
416 -417 431 0
-416 -417 -431 0
418 419 -432 0
-418 419 432 0
418 -419 432 0
-418 -419 -432 0
420 421 -433 0
-420 421 433 0
420 -421 433 0
-420 -421 -433 0
422 423 -434 0
-422 423 434 0
422 -423 434 0
-422 -423 -434 0
424 425 -435 0
-424 425 435 0
424 -425 435 0
-424 -425 -435 0
426 427 -436 0
-426 427 436 0
426 -427 436 0
-426 -427 -436 0
428 429 -437 0
-428 429 437 0
428 -429 437 0
-428 -429 -437 0
430 431 -438 0
-430 431 438 0
430 -431 438 0
-430 -431 -438 0
432 433 -439 0
-432 433 439 0
432 -433 439 0
-432 -433 -439 0
434 435 -440 0
-434 435 440 0
434 -435 440 0
-434 -435 -440 0
436 437 -441 0
-436 437 441 0
436 -437 441 0
-436 -437 -441 0
439 440 -442 0
-439 440 442 0
439 -440 442 0
-439 -440 -442 0
441 438 -443 0
-441 438 443 0
441 -438 443 0
-441 -438 -443 0
442 443 -222 0
-442 443 222 0
442 -443 222 0
-442 -443 -222 0
